NAME: template2.png
TYPE: TSP
DIMENSION: 21
EDGE_WEIGHT_TYPE: EUC_2D
NODE_COORD_SECTION
1 1093.5 156.5
2 1280.5 156.5
3 1342.5 156.5
4 1529.5 156.5
5 1155.5 157.5
6 1218.5 157.5
7 1467.5 157.5
8 1591.5 157.5
9 1404.5 158.5
10 1031.5 219.5
11 1654.5 220.5
12 1716.5 281.5
13 968.5 282.5
14 906.5 343.5
15 1778.5 343.5
16 844.5 406.5
17 1840.5 407.5
18 844.5 468.5
19 1840.5 469.5
20 844.5 530.5
21 1840.5 531.5
EOF
